(set-logic QF_BV)
(declare-fun _substvar_86_ () (_ BitVec 63))
(declare-fun _substvar_61_ () (_ BitVec 63))
(declare-fun _substvar_93_ () (_ BitVec 63))
(declare-fun _substvar_148_ () Bool)
(declare-fun _substvar_98_ () (_ BitVec 63))
(assert (and true true true true true true true true true true true true true true true true true true true true true true true true true true true true true true true true true true true true true true true true true true true true true true true true true true true true true true true true true true true true true true true true true true true true true true true true true true true true true true true true true true true true true true true true true true true true (= _substvar_86_ (_ bv0 63)) (ite _substvar_148_ (= _substvar_93_ (_ bv0 63)) (= _substvar_93_ (concat (_ bv0 62) (bvxor (_ bv0 1) ((_ extract 61 61) _substvar_86_))))) (= _substvar_98_ (concat ((_ extract 61 0) _substvar_93_) (bvxor ((_ extract 62 62) _substvar_93_) ((_ extract 61 61) _substvar_93_)))) (= _substvar_61_ (concat ((_ extract 61 0) _substvar_98_) (_ bv0 1))) true true true true true true true true true true true true true true true true true true true true true true true true true true true true true true true true true true true true true true true true true true true true true true true true true true true true true true true true true true true true true true true true true true true true true true true true true true true true true true true true true true true true true true true true true true true true true true true true true true true (= (= _substvar_61_ (_ bv0 63)) false)))
(check-sat)
(exit)
